
  32    4
  10   10   10   10

   0   0   0   0   0  12 2 3 4 5 6 8 12 13 14 15 30 31 
   2   1   1   1   0   8 29 22 21 20 19 16 10 9 
   3   0   1   1   1   6 26 24 23 20 18 7 
   8   0   4   3   4   8 28 27 25 24 23 22 17 9 
   2   2   4   0   2   7 26 25 24 23 21 20 9 
  10   3   0   2   4   4 20 19 17 11 
   6   5   4   6   0   4 22 21 17 16 
   8   2   6   4   0   4 22 21 20 19 
   4   5   4   0   4   1 18 
   9   0   1   3   1   1 17 
   5   4   0   2   5   1 16 
  10   0   7   5   2   1 19 
   3   0   5   4   3   1 19 
   8   4   2   3   0   1 18 
   6   5   8   0   4   1 16 
   3   0   3   6   7   1 32
  10   0   7   6   3   1 32
   4   7   4   0   5   1 32
   9   8   3   4   0   1 32
   1   3   7   0   5   1 32
   8   4   0   3   6   1 32
  10   5   0   1   8   1 32
   5   3   4   7   0   1 32
   5   5   4   0   3   1 32
   9   2   2   0   4   1 32
   5   4   1   0   5   1 32
  10   2   0   4   3   1 32
  10   3   0   7   4   1 32
  10   5   0   8   5   1 32
   4   7   5   0   5   1 32
  10   3   5   0   3   1 32
   0   0   0   0   0   0 
